HUN,8,6,192
1,16,0,24,2,6,3,12,4,2,5,15
0,28,1,15,2,11,5,2,4,1,3,30
1,2,0,11,2,7,5,29,3,4,4,12
1,22,0,12,2,25,3,14,5,10,4,8
2,20,0,8,1,8,4,3,3,28,5,7
0,6,1,6,2,13,5,19,3,14,4,26
0,22,1,7,2,7,3,22,5,23,4,30
2,12,0,26,1,11,3,27,5,17,4,25
